c This is QMaxSAT 2017 based on 14.07
c This is Glucose 3.0
c This is MiniSat 2.2.0
c WARNING: for repeatability, setting FPU to use double precision
c card = mrwto, comp = 0, pmodel = 0, narr = 3, mct = 14, verb = 0
cr firstCPXsol 0 0 0
c top = 80229
c |  Number of variables:    2616                                             |
c |  Number of clauses:      167810                                           |
c |  Weight of hard clauses: 80229                                            |
c |  Number of soft clauses: 546                                              |
c |  Number of unit soft clauses: 546                                         |
c |  Maximum Cardinality (by unit): 240684       (240684      )               |
c last restart ## conflicts  :  4 1049 
o 2722 | cpuTime 0.026969 s
c Sum of weights = 80228
c A number of soft clauses remained = 182
c MRWTO encoding for Pseudo-Boolean Constraints
c sizeMax=2722
c No.0 Divisor=14	generated by pow1
c No.1 Divisor=14	generated by pow1
c No.2 Divisor=14	generated by pow1
c p0= 14	p1= 14	p2= 14	
c number of digits = 4
c linkingVar[0].size = 14, linkingVar[1].size = 14, linkingVar[2].size = 14, linkingVar[3].size = 1, 
c Pseudo-Boolean Constraints: 4975 variables and 55759 clauses
c Sum of weights = 80228
c A number of soft clauses remained = 182
c MRWTO encoding for Pseudo-Boolean Constraints
c sizeMax=2722
c No.0 Divisor=14	generated by pow1
c No.1 Divisor=14	generated by pow1
c No.2 Divisor=14	generated by pow1
c p0= 14	p1= 14	p2= 14	
c number of digits = 4
c linkingVar[0].size = 14, linkingVar[1].size = 14, linkingVar[2].size = 14, linkingVar[3].size = 1, 
c Pseudo-Boolean Constraints: 4975 variables and 55759 clauses
c Sum of weights = 80228
c A number of soft clauses remained = 182
c MRWTO encoding for Pseudo-Boolean Constraints
c sizeMax=2722
c No.0 Divisor=14	generated by pow1
c No.1 Divisor=14	generated by pow1
c No.2 Divisor=14	generated by pow1
c p0= 14	p1= 14	p2= 14	
c number of digits = 4
c linkingVar[0].size = 14, linkingVar[1].size = 14, linkingVar[2].size = 14, linkingVar[3].size = 1, 
c Pseudo-Boolean Constraints: 4975 variables and 55759 clauses
c last restart ## conflicts  :  10 2849 
o 2533 | cpuTime 0.057694 s
c last restart ## conflicts  :  28 5626 
o 2487 | cpuTime 0.060043 s
c last restart ## conflicts  :  35 7494 
o 2361 | cpuTime 0.063668 s
c last restart ## conflicts  :  138 3640 
o 2296 | cpuTime 0.072236 s
c last restart ## conflicts  :  113 1922 
o 1907 | cpuTime 0.109121 s
c last restart ## conflicts  :  565 1320 
o 1875 | cpuTime 0.529783 s
c last restart ## conflicts  :  96 2564 
o 1778 | cpuTime 0.539895 s
c last restart ## conflicts  :  186 1372 
o 1771 | cpuTime 2.89126 s
c last restart ## conflicts  :  398 1324 
o 1766 | cpuTime 3.07169 s
s OPTIMUM FOUND
cr positiVarArr: [ | 5@1(1->5) | 57@1(5->1) | 209@2(1->13) | 211@2(2->1) | 226@2(3->2) | 241@2(4->3) | 270@2(6->4) | 292@2(7->12) | 356@2(12->6) | 371@2(13->7) | 400@3(1->8) | 504@3(8->14) | 505@3(9->1) | 529@3(10->11) | 541@3(11->9) | 584@3(14->10) | ]
cr the 1-th chain: [ 1->5->1 ] (#non-depot=1) {#cumul.=2}
cr the 2-th chain: [ 1->13->7->12->6->4->3->2->1 ] (#non-depot=7) {#cumul.=9}
cr the 3-th chain: [ 1->8->14->10->11->9->1 ] (#non-depot=5) {#cumul.=14}
c Latest Answer = 0 by 10 loops
c restarts              : 2217
c conflicts             : 365557         (16610 /sec)
c decisions             : 1606086        (0.00 % random) (72974 /sec)
c propagations          : 156737611      (7121567 /sec)
c conflict literals     : 26364981       (25.38 % deleted)
c Memory used           : 100.00 MB
c CPU time              : 22.0089 s
